VRPTWMS/instances/mip/toDelete/freight_old/5/N5-C_DV10-C_SV50_F12_14_No_1.log

Gurobi 6.0.4 (win64) logging started 06/13/15 23:06:36

Warning: unknown variable 'kDash_dN' in bounds section
Read LP format model from file C:\MT\repository\VRPTWMS\instances\mip\freight\N5-C_DV10-C_SV50_F12_14_No_1.lp
Reading time = 0.01 seconds
(null): 161 rows, 110 columns, 603 nonzeros
Optimize a model with 161 rows, 110 columns and 603 nonzeros
Model has 180 quadratic constraints
WARNING: Only barrier available for SOCP models
Coefficient statistics:
  Matrix range    [1e+00, 1e+02]
  Objective range [7e+00, 1e+03]
  Bounds range    [1e+00, 1e+02]
  RHS range       [1e+00, 1e+02]
Presolve removed 26 rows and 11 columns
Presolve time: 0.02s
Presolved: 570 rows, 329 columns, 2436 nonzeros
Variable types: 205 continuous, 124 integer (90 binary)
Found heuristic solution: objective 5158.1600000
Optimize a model with 570 rows, 329 columns and 2436 nonzeros
Coefficient statistics:
  Matrix range    [1e+00, 1e+02]
  Objective range [7e+00, 1e+03]
  Bounds range    [1e+00, 1e+02]
  RHS range       [1e+00, 1e+02]
Presolve removed 28 rows and 17 columns
Presolved: 542 rows, 313 columns, 2306 nonzeros


Root relaxation: objective 4.027964e+02, 124 iterations, 0.01 seconds

    Nodes    |    Current Node    |     Objective Bounds      |     Work
 Expl Unexpl |  Obj  Depth IntInf | Incumbent    BestBd   Gap | It/Node Time

     0     0  402.79639    0   44 5158.16000  402.79639  92.2%     -    0s
H    0     0                    4137.8200000  402.79639  90.3%     -    0s
     0     0 1102.46400    0   34 4137.82000 1102.46400  73.4%     -    0s
     0     0 1114.40309    0   37 4137.82000 1114.40309  73.1%     -    0s
H    0     0                    3133.4500000 1114.40309  64.4%     -    0s
     0     0 1119.80500    0   17 3133.45000 1119.80500  64.3%     -    0s
     0     0 1120.05500    0   17 3133.45000 1120.05500  64.3%     -    0s
     0     0 1120.05500    0   18 3133.45000 1120.05500  64.3%     -    0s
     0     0 1120.05500    0   23 3133.45000 1120.05500  64.3%     -    0s
     0     0 1120.05500    0   23 3133.45000 1120.05500  64.3%     -    0s
     0     2 1120.05500    0   15 3133.45000 1120.05500  64.3%     -    0s
*  112    38               7    2144.4000000 1130.29000  47.3%  34.3    0s

Cutting planes:
  Gomory: 2
  Cover: 11
  Implied bound: 30
  Clique: 27
  MIR: 28
  Flow cover: 1
  GUB cover: 9

Explored 354 nodes (10047 simplex iterations) in 0.25 seconds
Thread count was 2 (of 4 available processors)

Optimal solution found (tolerance 1.00e-04)
Best objective 2.144400000000e+03, best bound 2.144400000000e+03, gap 0.0%
k_c1	4.0
k_c2	10.0
k_c3	10.0
k_c4	10.0
k_c5	7.000000000000001
k_dN	-0.0
kDash_c1	-0.0
kDash_c2	7.000000000000001
kDash_c3	2.999999999999999
kDash_c4	4.0
kDash_c5	2.000000000000001
kDash_dN	-0.0
o_1	0.0
o_2	0.0
o_3	0.0
o_4	0.0
o_5	-0.0
p_1	0.0
p_2	0.0
p_3	1.0
p_4	0.0
p_5	1.0000000000000036
phi_c1	2.000000000000005
phi_c2	11.0
phi_c3	8.0
phi_c4	2.9999999999999982
phi_c5	9.0
phi_d0	12.0
phi_dN	-0.0
pi_c1	40.0
pi_c2	50.0
pi_c3	42.0
pi_c4	50.0
pi_c5	50.0
pi_dN	-0.0
tauD_c1	71.0
tauD_c2	3.0
tauD_c3	40.0
tauD_c4	65.0
tauD_c5	25.0
tauD_d0	-0.0
tauD_dN	100.0
tauS_c1	0.0
tauS_c2	0.0
tauS_c3	36.0
tauS_c4	0.0
tauS_c5	26.0
tauS_d0	-0.0
tauS_dN	62.99999999999977
x_c1_dN	1.0
x_c2_c5	1.0
x_c3_c4	1.0
x_c4_c1	1.0
x_c5_c3	1.0
x_d0_c2	1.0
z_c3_dN	0.9999999999999964
z_c5_c3	1.0
z_d0_c5	1.0000000000000036
